cliques=[{0,3,4,1,5,2},{0,3,4,1,5,2},{0,3,4,1,5,2},{0,3,4,1,5,2},{0,3,4,1,5,2},{0,3,4,1,5,2},{6,8,7},{6,8,7},{3,26,22,30,8,35},{0,15,33,9},{6,20,34,10},{12,11,14,13,9,10},{12,11,14,13,9,10},{23,27,4,13,36,18},{12,11,14,13,9,10},{0,15,33,9},{15,19,17,18,16},{15,19,17,18,16},{23,27,4,13,36,18},{15,19,17,18,16},{6,20,34,10},{23,22,21,20,24},{3,26,22,30,8,35},{23,27,4,13,36,18},{23,22,21,20,24},{27,26,25},{3,26,22,30,8,35},{23,27,4,13,36,18},{25,11,7,1,16,28},{12,21,17,29,2},{3,26,22,30,8,35},{19,14,24,37,31},{32,30,29,31,28},{0,15,33,9},{6,20,34,10},{3,26,22,30,8,35},{23,27,4,13,36,18},{19,14,24,37,31}];
nr_cliques=38;
